Maximize

1715.0 x_0 + 955.0 x_1 + 377.0 x_2 + 1212.0 x_3 + 1427.0 x_4 + 240.0 x_5 + 610.0 x_6 + 2180.0 x_7 + 1590.0 x_8 + 1900.0 x_9 + 967.0 x_10 + 1447.0 x_11 + 1240.0 x_12 + 240.0 x_13 + 2175.0 x_14 + 1930.0 x_15 + 610.0 x_16 + 2540.0 x_17 + 867.0 x_18 + 1675.0 x_19


Subject To

a0: 100 x_0 + 84 x_0 + 0 x_0 + 0 x_0 + 14 x_0 + 99 x_0 + 0 x_0 + 72 x_0 + 0 x_0 + 0 x_0 + 0 x_1 + 0 x_1 + 0 x_1 + 12 x_1 + 0 x_1 + 0 x_1 + 108 x_1 + 0 x_1 + 76 x_1 + 0 x_1 + 0 x_2 + 0 x_2 + 0 x_2 + 0 x_2 + 0 x_2 + 77 x_2 + 0 x_2 + 0 x_2 + 0 x_2 + 0 x_2 + 120 x_3 + 0 x_3 + 0 x_3 + 12 x_3 + 0 x_3 + 0 x_3 + 54 x_3 + 0 x_3 + 0 x_3 + 4 x_3 + 0 x_4 + 0 x_4 + 0 x_4 + 0 x_4 + 35 x_4 + 88 x_4 + 0 x_4 + 144 x_4 + 0 x_4 + 0 x_4 + 0 x_5 + 0 x_5 + 0 x_5 + 0 x_5 + 0 x_5 + 0 x_5 + 0 x_5 + 0 x_5 + 0 x_5 + 8 x_5 + 0 x_6 + 0 x_6 + 0 x_6 + 32 x_6 + 0 x_6 + 0 x_6 + 0 x_6 + 0 x_6 + 38 x_6 + 0 x_6 + 160 x_7 + 210 x_7 + 0 x_7 + 0 x_7 + 0 x_7 + 0 x_7 + 0 x_7 + 144 x_7 + 0 x_7 + 0 x_7 + 0 x_8 + 0 x_8 + 0 x_8 + 0 x_8 + 63 x_8 + 0 x_8 + 126 x_8 + 0 x_8 + 171 x_8 + 0 x_8 + 0 x_9 + 63 x_9 + 80 x_9 + 8 x_9 + 0 x_9 + 0 x_9 + 180 x_9 + 0 x_9 + 95 x_9 + 0 x_9 + 40 x_10 + 0 x_10 + 0 x_10 + 32 x_10 + 0 x_10 + 0 x_10 + 54 x_10 + 0 x_10 + 0 x_10 + 0 x_10 + 140 x_11 + 0 x_11 + 0 x_11 + 0 x_11 + 0 x_11 + 0 x_11 + 0 x_11 + 108 x_11 + 0 x_11 + 4 x_11 + 80 x_12 + 0 x_12 + 60 x_12 + 16 x_12 + 35 x_12 + 0 x_12 + 0 x_12 + 0 x_12 + 0 x_12 + 0 x_12 + 0 x_13 + 0 x_13 + 0 x_13 + 0 x_13 + 0 x_13 + 0 x_13 + 0 x_13 + 0 x_13 + 0 x_13 + 8 x_13 + 0 x_14 + 0 x_14 + 180 x_14 + 12 x_14 + 56 x_14 + 0 x_14 + 72 x_14 + 0 x_14 + 0 x_14 + 10 x_14 + 0 x_15 + 0 x_15 + 180 x_15 + 0 x_15 + 63 x_15 + 110 x_15 + 0 x_15 + 0 x_15 + 0 x_15 + 0 x_15 + 0 x_16 + 0 x_16 + 0 x_16 + 0 x_16 + 0 x_16 + 0 x_16 + 0 x_16 + 0 x_16 + 190 x_16 + 0 x_16 + 0 x_17 + 126 x_17 + 160 x_17 + 0 x_17 + 35 x_17 + 0 x_17 + 144 x_17 + 0 x_17 + 0 x_17 + 14 x_17 + 0 x_18 + 0 x_18 + 140 x_18 + 0 x_18 + 0 x_18 + 22 x_18 + 0 x_18 + 0 x_18 + 0 x_18 + 0 x_18 + 0 x_19 + 105 x_19 + 200 x_19 + 0 x_19 + 0 x_19 + 66 x_19 + 0 x_19 + 0 x_19 + 0 x_19 + 0 x_19 <= 1795
b0: 115 x_0 + 4 x_0 + 0 x_0 + 0 x_0 + 24 x_0 + 90 x_0 + 0 x_0 + 80 x_0 + 0 x_0 + 0 x_0 + 0 x_1 + 0 x_1 + 0 x_1 + 60 x_1 + 0 x_1 + 0 x_1 + 102 x_1 + 0 x_1 + 20 x_1 + 0 x_1 + 0 x_2 + 0 x_2 + 0 x_2 + 0 x_2 + 0 x_2 + 70 x_2 + 0 x_2 + 0 x_2 + 0 x_2 + 0 x_2 + 138 x_3 + 0 x_3 + 0 x_3 + 60 x_3 + 0 x_3 + 0 x_3 + 51 x_3 + 0 x_3 + 0 x_3 + 42 x_3 + 0 x_4 + 0 x_4 + 0 x_4 + 0 x_4 + 60 x_4 + 80 x_4 + 0 x_4 + 160 x_4 + 0 x_4 + 0 x_4 + 0 x_5 + 0 x_5 + 0 x_5 + 0 x_5 + 0 x_5 + 0 x_5 + 0 x_5 + 0 x_5 + 0 x_5 + 84 x_5 + 0 x_6 + 0 x_6 + 0 x_6 + 160 x_6 + 0 x_6 + 0 x_6 + 0 x_6 + 0 x_6 + 10 x_6 + 0 x_6 + 184 x_7 + 10 x_7 + 0 x_7 + 0 x_7 + 0 x_7 + 0 x_7 + 0 x_7 + 160 x_7 + 0 x_7 + 0 x_7 + 0 x_8 + 0 x_8 + 0 x_8 + 0 x_8 + 108 x_8 + 0 x_8 + 119 x_8 + 0 x_8 + 45 x_8 + 0 x_8 + 0 x_9 + 3 x_9 + 92 x_9 + 40 x_9 + 0 x_9 + 0 x_9 + 170 x_9 + 0 x_9 + 25 x_9 + 0 x_9 + 46 x_10 + 0 x_10 + 0 x_10 + 160 x_10 + 0 x_10 + 0 x_10 + 51 x_10 + 0 x_10 + 0 x_10 + 0 x_10 + 161 x_11 + 0 x_11 + 0 x_11 + 0 x_11 + 0 x_11 + 0 x_11 + 0 x_11 + 120 x_11 + 0 x_11 + 42 x_11 + 92 x_12 + 0 x_12 + 69 x_12 + 80 x_12 + 60 x_12 + 0 x_12 + 0 x_12 + 0 x_12 + 0 x_12 + 0 x_12 + 0 x_13 + 0 x_13 + 0 x_13 + 0 x_13 + 0 x_13 + 0 x_13 + 0 x_13 + 0 x_13 + 0 x_13 + 84 x_13 + 0 x_14 + 0 x_14 + 207 x_14 + 60 x_14 + 96 x_14 + 0 x_14 + 68 x_14 + 0 x_14 + 0 x_14 + 105 x_14 + 0 x_15 + 0 x_15 + 207 x_15 + 0 x_15 + 108 x_15 + 100 x_15 + 0 x_15 + 0 x_15 + 0 x_15 + 0 x_15 + 0 x_16 + 0 x_16 + 0 x_16 + 0 x_16 + 0 x_16 + 0 x_16 + 0 x_16 + 0 x_16 + 50 x_16 + 0 x_16 + 0 x_17 + 6 x_17 + 184 x_17 + 0 x_17 + 60 x_17 + 0 x_17 + 136 x_17 + 0 x_17 + 0 x_17 + 147 x_17 + 0 x_18 + 0 x_18 + 161 x_18 + 0 x_18 + 0 x_18 + 20 x_18 + 0 x_18 + 0 x_18 + 0 x_18 + 0 x_18 + 0 x_19 + 5 x_19 + 230 x_19 + 0 x_19 + 0 x_19 + 60 x_19 + 0 x_19 + 0 x_19 + 0 x_19 + 0 x_19 <= 1740
c0: x_0 <= 2
c1: x_1 <= 3
c2: x_2 <= 5
c3: x_3 <= 2
c4: x_4 <= 3
c5: x_5 <= 5
c6: x_6 <= 4
c7: x_7 <= 3
c8: x_8 <= 3
c9: x_9 <= 2
c10: x_10 <= 3
c11: x_11 <= 3
c12: x_12 <= 2
c13: x_13 <= 5
c14: x_14 <= 2
c15: x_15 <= 3
c16: x_16 <= 5
c17: x_17 <= 2
c18: x_18 <= 4
c19: x_19 <= 3





General

 x_0 x_1 x_2 x_3 x_4 x_5 x_6 x_7 x_8 x_9 x_10 x_11 x_12 x_13 x_14 x_15 x_16 x_17 x_18 x_19



End
